\ LP format - for model browsing. Use MPS format to capture full model detail.
Minimize
  C
Subject To
 time(1,1): x(1,1,1) + x(1,1,2) + x(1,1,3) + x(1,1,4) + x(1,1,5) + x(1,1,6)
   + x(1,1,7) + x(1,1,8) + x(1,1,9) + x(1,1,10) + x(1,1,11) + x(1,1,12)
   + x(1,1,13) + x(1,1,14) + x(1,1,15) + x(1,1,16) + x(1,1,17) + x(1,1,18)
   + x(1,1,19) + x(1,1,20) = 1
 time(1,2): x(1,2,1) + x(1,2,2) + x(1,2,3) + x(1,2,4) + x(1,2,5) + x(1,2,6)
   + x(1,2,7) + x(1,2,8) + x(1,2,9) + x(1,2,10) + x(1,2,11) + x(1,2,12)
   + x(1,2,13) + x(1,2,14) + x(1,2,15) + x(1,2,16) + x(1,2,17) + x(1,2,18)
   + x(1,2,19) + x(1,2,20) = 1
 time(1,3): x(1,3,1) + x(1,3,2) + x(1,3,3) + x(1,3,4) + x(1,3,5) + x(1,3,6)
   + x(1,3,7) + x(1,3,8) + x(1,3,9) + x(1,3,10) + x(1,3,11) + x(1,3,12)
   + x(1,3,13) + x(1,3,14) + x(1,3,15) + x(1,3,16) + x(1,3,17) + x(1,3,18)
   + x(1,3,19) + x(1,3,20) = 1
 time(2,1): x(2,1,1) + x(2,1,2) + x(2,1,3) + x(2,1,4) + x(2,1,5) + x(2,1,6)
   + x(2,1,7) + x(2,1,8) + x(2,1,9) + x(2,1,10) + x(2,1,11) + x(2,1,12)
   + x(2,1,13) + x(2,1,14) + x(2,1,15) + x(2,1,16) + x(2,1,17) + x(2,1,18)
   + x(2,1,19) + x(2,1,20) = 1
 time(2,2): x(2,2,1) + x(2,2,2) + x(2,2,3) + x(2,2,4) + x(2,2,5) + x(2,2,6)
   + x(2,2,7) + x(2,2,8) + x(2,2,9) + x(2,2,10) + x(2,2,11) + x(2,2,12)
   + x(2,2,13) + x(2,2,14) + x(2,2,15) + x(2,2,16) + x(2,2,17) + x(2,2,18)
   + x(2,2,19) + x(2,2,20) = 1
 time(2,3): x(2,3,1) + x(2,3,2) + x(2,3,3) + x(2,3,4) + x(2,3,5) + x(2,3,6)
   + x(2,3,7) + x(2,3,8) + x(2,3,9) + x(2,3,10) + x(2,3,11) + x(2,3,12)
   + x(2,3,13) + x(2,3,14) + x(2,3,15) + x(2,3,16) + x(2,3,17) + x(2,3,18)
   + x(2,3,19) + x(2,3,20) = 1
 time(3,1): x(3,1,1) + x(3,1,2) + x(3,1,3) + x(3,1,4) + x(3,1,5) + x(3,1,6)
   + x(3,1,7) + x(3,1,8) + x(3,1,9) + x(3,1,10) + x(3,1,11) + x(3,1,12)
   + x(3,1,13) + x(3,1,14) + x(3,1,15) + x(3,1,16) + x(3,1,17) + x(3,1,18)
   + x(3,1,19) + x(3,1,20) = 1
 time(3,2): x(3,2,1) + x(3,2,2) + x(3,2,3) + x(3,2,4) + x(3,2,5) + x(3,2,6)
   + x(3,2,7) + x(3,2,8) + x(3,2,9) + x(3,2,10) + x(3,2,11) + x(3,2,12)
   + x(3,2,13) + x(3,2,14) + x(3,2,15) + x(3,2,16) + x(3,2,17) + x(3,2,18)
   + x(3,2,19) + x(3,2,20) = 1
 time(3,3): x(3,3,1) + x(3,3,2) + x(3,3,3) + x(3,3,4) + x(3,3,5) + x(3,3,6)
   + x(3,3,7) + x(3,3,8) + x(3,3,9) + x(3,3,10) + x(3,3,11) + x(3,3,12)
   + x(3,3,13) + x(3,3,14) + x(3,3,15) + x(3,3,16) + x(3,3,17) + x(3,3,18)
   + x(3,3,19) + x(3,3,20) = 1
 makespan(1,1): - 5 x(1,1,1) - 6 x(1,1,2) - 7 x(1,1,3) - 8 x(1,1,4)
   - 9 x(1,1,5) - 10 x(1,1,6) - 11 x(1,1,7) - 12 x(1,1,8) - 13 x(1,1,9)
   - 14 x(1,1,10) - 15 x(1,1,11) - 16 x(1,1,12) - 17 x(1,1,13)
   - 18 x(1,1,14) - 19 x(1,1,15) - 20 x(1,1,16) - 21 x(1,1,17)
   - 22 x(1,1,18) - 23 x(1,1,19) - 24 x(1,1,20) + C >= 0
 makespan(1,2): - 4 x(1,2,1) - 5 x(1,2,2) - 6 x(1,2,3) - 7 x(1,2,4)
   - 8 x(1,2,5) - 9 x(1,2,6) - 10 x(1,2,7) - 11 x(1,2,8) - 12 x(1,2,9)
   - 13 x(1,2,10) - 14 x(1,2,11) - 15 x(1,2,12) - 16 x(1,2,13)
   - 17 x(1,2,14) - 18 x(1,2,15) - 19 x(1,2,16) - 20 x(1,2,17)
   - 21 x(1,2,18) - 22 x(1,2,19) - 23 x(1,2,20) + C >= 0
 makespan(1,3): - 3 x(1,3,1) - 4 x(1,3,2) - 5 x(1,3,3) - 6 x(1,3,4)
   - 7 x(1,3,5) - 8 x(1,3,6) - 9 x(1,3,7) - 10 x(1,3,8) - 11 x(1,3,9)
   - 12 x(1,3,10) - 13 x(1,3,11) - 14 x(1,3,12) - 15 x(1,3,13)
   - 16 x(1,3,14) - 17 x(1,3,15) - 18 x(1,3,16) - 19 x(1,3,17)
   - 20 x(1,3,18) - 21 x(1,3,19) - 22 x(1,3,20) + C >= 0
 makespan(2,1): - 3 x(2,1,1) - 4 x(2,1,2) - 5 x(2,1,3) - 6 x(2,1,4)
   - 7 x(2,1,5) - 8 x(2,1,6) - 9 x(2,1,7) - 10 x(2,1,8) - 11 x(2,1,9)
   - 12 x(2,1,10) - 13 x(2,1,11) - 14 x(2,1,12) - 15 x(2,1,13)
   - 16 x(2,1,14) - 17 x(2,1,15) - 18 x(2,1,16) - 19 x(2,1,17)
   - 20 x(2,1,18) - 21 x(2,1,19) - 22 x(2,1,20) + C >= 0
 makespan(2,2): - 5 x(2,2,1) - 6 x(2,2,2) - 7 x(2,2,3) - 8 x(2,2,4)
   - 9 x(2,2,5) - 10 x(2,2,6) - 11 x(2,2,7) - 12 x(2,2,8) - 13 x(2,2,9)
   - 14 x(2,2,10) - 15 x(2,2,11) - 16 x(2,2,12) - 17 x(2,2,13)
   - 18 x(2,2,14) - 19 x(2,2,15) - 20 x(2,2,16) - 21 x(2,2,17)
   - 22 x(2,2,18) - 23 x(2,2,19) - 24 x(2,2,20) + C >= 0
 makespan(2,3): - 3 x(2,3,1) - 4 x(2,3,2) - 5 x(2,3,3) - 6 x(2,3,4)
   - 7 x(2,3,5) - 8 x(2,3,6) - 9 x(2,3,7) - 10 x(2,3,8) - 11 x(2,3,9)
   - 12 x(2,3,10) - 13 x(2,3,11) - 14 x(2,3,12) - 15 x(2,3,13)
   - 16 x(2,3,14) - 17 x(2,3,15) - 18 x(2,3,16) - 19 x(2,3,17)
   - 20 x(2,3,18) - 21 x(2,3,19) - 22 x(2,3,20) + C >= 0
 makespan(3,1): - 5 x(3,1,1) - 6 x(3,1,2) - 7 x(3,1,3) - 8 x(3,1,4)
   - 9 x(3,1,5) - 10 x(3,1,6) - 11 x(3,1,7) - 12 x(3,1,8) - 13 x(3,1,9)
   - 14 x(3,1,10) - 15 x(3,1,11) - 16 x(3,1,12) - 17 x(3,1,13)
   - 18 x(3,1,14) - 19 x(3,1,15) - 20 x(3,1,16) - 21 x(3,1,17)
   - 22 x(3,1,18) - 23 x(3,1,19) - 24 x(3,1,20) + C >= 0
 makespan(3,2): - 3 x(3,2,1) - 4 x(3,2,2) - 5 x(3,2,3) - 6 x(3,2,4)
   - 7 x(3,2,5) - 8 x(3,2,6) - 9 x(3,2,7) - 10 x(3,2,8) - 11 x(3,2,9)
   - 12 x(3,2,10) - 13 x(3,2,11) - 14 x(3,2,12) - 15 x(3,2,13)
   - 16 x(3,2,14) - 17 x(3,2,15) - 18 x(3,2,16) - 19 x(3,2,17)
   - 20 x(3,2,18) - 21 x(3,2,19) - 22 x(3,2,20) + C >= 0
 makespan(3,3): - x(3,3,1) - 2 x(3,3,2) - 3 x(3,3,3) - 4 x(3,3,4)
   - 5 x(3,3,5) - 6 x(3,3,6) - 7 x(3,3,7) - 8 x(3,3,8) - 9 x(3,3,9)
   - 10 x(3,3,10) - 11 x(3,3,11) - 12 x(3,3,12) - 13 x(3,3,13)
   - 14 x(3,3,14) - 15 x(3,3,15) - 16 x(3,3,16) - 17 x(3,3,17)
   - 18 x(3,3,18) - 19 x(3,3,19) - 20 x(3,3,20) + C >= 0
 processing(1,1): x(1,1,1) + x(1,2,1) + x(1,3,1) <= 1
 processing(1,2): x(1,1,1) + x(1,1,2) + x(1,2,1) + x(1,2,2) + x(1,3,1)
   + x(1,3,2) <= 1
 processing(1,3): x(1,1,1) + x(1,1,2) + x(1,1,3) + x(1,2,1) + x(1,2,2)
   + x(1,2,3) + x(1,3,1) + x(1,3,2) + x(1,3,3) <= 1
 processing(1,4): x(1,1,1) + x(1,1,2) + x(1,1,3) + x(1,1,4) + x(1,2,1)
   + x(1,2,2) + x(1,2,3) + x(1,2,4) + x(1,3,2) + x(1,3,3) + x(1,3,4) <= 1
 processing(1,5): x(1,1,1) + x(1,1,2) + x(1,1,3) + x(1,1,4) + x(1,1,5)
   + x(1,2,2) + x(1,2,3) + x(1,2,4) + x(1,2,5) + x(1,3,3) + x(1,3,4)
   + x(1,3,5) <= 1
 processing(1,6): x(1,1,2) + x(1,1,3) + x(1,1,4) + x(1,1,5) + x(1,1,6)
   + x(1,2,3) + x(1,2,4) + x(1,2,5) + x(1,2,6) + x(1,3,4) + x(1,3,5)
   + x(1,3,6) <= 1
 processing(1,7): x(1,1,3) + x(1,1,4) + x(1,1,5) + x(1,1,6) + x(1,1,7)
   + x(1,2,4) + x(1,2,5) + x(1,2,6) + x(1,2,7) + x(1,3,5) + x(1,3,6)
   + x(1,3,7) <= 1
 processing(1,8): x(1,1,4) + x(1,1,5) + x(1,1,6) + x(1,1,7) + x(1,1,8)
   + x(1,2,5) + x(1,2,6) + x(1,2,7) + x(1,2,8) + x(1,3,6) + x(1,3,7)
   + x(1,3,8) <= 1
 processing(1,9): x(1,1,5) + x(1,1,6) + x(1,1,7) + x(1,1,8) + x(1,1,9)
   + x(1,2,6) + x(1,2,7) + x(1,2,8) + x(1,2,9) + x(1,3,7) + x(1,3,8)
   + x(1,3,9) <= 1
 processing(1,10): x(1,1,6) + x(1,1,7) + x(1,1,8) + x(1,1,9) + x(1,1,10)
   + x(1,2,7) + x(1,2,8) + x(1,2,9) + x(1,2,10) + x(1,3,8) + x(1,3,9)
   + x(1,3,10) <= 1
 processing(1,11): x(1,1,7) + x(1,1,8) + x(1,1,9) + x(1,1,10) + x(1,1,11)
   + x(1,2,8) + x(1,2,9) + x(1,2,10) + x(1,2,11) + x(1,3,9) + x(1,3,10)
   + x(1,3,11) <= 1
 processing(1,12): x(1,1,8) + x(1,1,9) + x(1,1,10) + x(1,1,11) + x(1,1,12)
   + x(1,2,9) + x(1,2,10) + x(1,2,11) + x(1,2,12) + x(1,3,10) + x(1,3,11)
   + x(1,3,12) <= 1
 processing(1,13): x(1,1,9) + x(1,1,10) + x(1,1,11) + x(1,1,12) + x(1,1,13)
   + x(1,2,10) + x(1,2,11) + x(1,2,12) + x(1,2,13) + x(1,3,11) + x(1,3,12)
   + x(1,3,13) <= 1
 processing(1,14): x(1,1,10) + x(1,1,11) + x(1,1,12) + x(1,1,13)
   + x(1,1,14) + x(1,2,11) + x(1,2,12) + x(1,2,13) + x(1,2,14) + x(1,3,12)
   + x(1,3,13) + x(1,3,14) <= 1
 processing(1,15): x(1,1,11) + x(1,1,12) + x(1,1,13) + x(1,1,14)
   + x(1,1,15) + x(1,2,12) + x(1,2,13) + x(1,2,14) + x(1,2,15) + x(1,3,13)
   + x(1,3,14) + x(1,3,15) <= 1
 processing(1,16): x(1,1,12) + x(1,1,13) + x(1,1,14) + x(1,1,15)
   + x(1,1,16) + x(1,2,13) + x(1,2,14) + x(1,2,15) + x(1,2,16) + x(1,3,14)
   + x(1,3,15) + x(1,3,16) <= 1
 processing(1,17): x(1,1,13) + x(1,1,14) + x(1,1,15) + x(1,1,16)
   + x(1,1,17) + x(1,2,14) + x(1,2,15) + x(1,2,16) + x(1,2,17) + x(1,3,15)
   + x(1,3,16) + x(1,3,17) <= 1
 processing(1,18): x(1,1,14) + x(1,1,15) + x(1,1,16) + x(1,1,17)
   + x(1,1,18) + x(1,2,15) + x(1,2,16) + x(1,2,17) + x(1,2,18) + x(1,3,16)
   + x(1,3,17) + x(1,3,18) <= 1
 processing(1,19): x(1,1,15) + x(1,1,16) + x(1,1,17) + x(1,1,18)
   + x(1,1,19) + x(1,2,16) + x(1,2,17) + x(1,2,18) + x(1,2,19) + x(1,3,17)
   + x(1,3,18) + x(1,3,19) <= 1
 processing(1,20): x(1,1,16) + x(1,1,17) + x(1,1,18) + x(1,1,19)
   + x(1,1,20) + x(1,2,17) + x(1,2,18) + x(1,2,19) + x(1,2,20) + x(1,3,18)
   + x(1,3,19) + x(1,3,20) <= 1
 processing(2,1): x(2,1,1) + x(2,2,1) + x(2,3,1) <= 1
 processing(2,2): x(2,1,1) + x(2,1,2) + x(2,2,1) + x(2,2,2) + x(2,3,1)
   + x(2,3,2) <= 1
 processing(2,3): x(2,1,1) + x(2,1,2) + x(2,1,3) + x(2,2,1) + x(2,2,2)
   + x(2,2,3) + x(2,3,1) + x(2,3,2) + x(2,3,3) <= 1
 processing(2,4): x(2,1,2) + x(2,1,3) + x(2,1,4) + x(2,2,1) + x(2,2,2)
   + x(2,2,3) + x(2,2,4) + x(2,3,2) + x(2,3,3) + x(2,3,4) <= 1
 processing(2,5): x(2,1,3) + x(2,1,4) + x(2,1,5) + x(2,2,1) + x(2,2,2)
   + x(2,2,3) + x(2,2,4) + x(2,2,5) + x(2,3,3) + x(2,3,4) + x(2,3,5) <= 1
 processing(2,6): x(2,1,4) + x(2,1,5) + x(2,1,6) + x(2,2,2) + x(2,2,3)
   + x(2,2,4) + x(2,2,5) + x(2,2,6) + x(2,3,4) + x(2,3,5) + x(2,3,6) <= 1
 processing(2,7): x(2,1,5) + x(2,1,6) + x(2,1,7) + x(2,2,3) + x(2,2,4)
   + x(2,2,5) + x(2,2,6) + x(2,2,7) + x(2,3,5) + x(2,3,6) + x(2,3,7) <= 1
 processing(2,8): x(2,1,6) + x(2,1,7) + x(2,1,8) + x(2,2,4) + x(2,2,5)
   + x(2,2,6) + x(2,2,7) + x(2,2,8) + x(2,3,6) + x(2,3,7) + x(2,3,8) <= 1
 processing(2,9): x(2,1,7) + x(2,1,8) + x(2,1,9) + x(2,2,5) + x(2,2,6)
   + x(2,2,7) + x(2,2,8) + x(2,2,9) + x(2,3,7) + x(2,3,8) + x(2,3,9) <= 1
 processing(2,10): x(2,1,8) + x(2,1,9) + x(2,1,10) + x(2,2,6) + x(2,2,7)
   + x(2,2,8) + x(2,2,9) + x(2,2,10) + x(2,3,8) + x(2,3,9) + x(2,3,10)
   <= 1
 processing(2,11): x(2,1,9) + x(2,1,10) + x(2,1,11) + x(2,2,7) + x(2,2,8)
   + x(2,2,9) + x(2,2,10) + x(2,2,11) + x(2,3,9) + x(2,3,10) + x(2,3,11)
   <= 1
 processing(2,12): x(2,1,10) + x(2,1,11) + x(2,1,12) + x(2,2,8) + x(2,2,9)
   + x(2,2,10) + x(2,2,11) + x(2,2,12) + x(2,3,10) + x(2,3,11) + x(2,3,12)
   <= 1
 processing(2,13): x(2,1,11) + x(2,1,12) + x(2,1,13) + x(2,2,9) + x(2,2,10)
   + x(2,2,11) + x(2,2,12) + x(2,2,13) + x(2,3,11) + x(2,3,12) + x(2,3,13)
   <= 1
 processing(2,14): x(2,1,12) + x(2,1,13) + x(2,1,14) + x(2,2,10)
   + x(2,2,11) + x(2,2,12) + x(2,2,13) + x(2,2,14) + x(2,3,12) + x(2,3,13)
   + x(2,3,14) <= 1
 processing(2,15): x(2,1,13) + x(2,1,14) + x(2,1,15) + x(2,2,11)
   + x(2,2,12) + x(2,2,13) + x(2,2,14) + x(2,2,15) + x(2,3,13) + x(2,3,14)
   + x(2,3,15) <= 1
 processing(2,16): x(2,1,14) + x(2,1,15) + x(2,1,16) + x(2,2,12)
   + x(2,2,13) + x(2,2,14) + x(2,2,15) + x(2,2,16) + x(2,3,14) + x(2,3,15)
   + x(2,3,16) <= 1
 processing(2,17): x(2,1,15) + x(2,1,16) + x(2,1,17) + x(2,2,13)
   + x(2,2,14) + x(2,2,15) + x(2,2,16) + x(2,2,17) + x(2,3,15) + x(2,3,16)
   + x(2,3,17) <= 1
 processing(2,18): x(2,1,16) + x(2,1,17) + x(2,1,18) + x(2,2,14)
   + x(2,2,15) + x(2,2,16) + x(2,2,17) + x(2,2,18) + x(2,3,16) + x(2,3,17)
   + x(2,3,18) <= 1
 processing(2,19): x(2,1,17) + x(2,1,18) + x(2,1,19) + x(2,2,15)
   + x(2,2,16) + x(2,2,17) + x(2,2,18) + x(2,2,19) + x(2,3,17) + x(2,3,18)
   + x(2,3,19) <= 1
 processing(2,20): x(2,1,18) + x(2,1,19) + x(2,1,20) + x(2,2,16)
   + x(2,2,17) + x(2,2,18) + x(2,2,19) + x(2,2,20) + x(2,3,18) + x(2,3,19)
   + x(2,3,20) <= 1
 processing(3,1): x(3,1,1) + x(3,2,1) + x(3,3,1) <= 1
 processing(3,2): x(3,1,1) + x(3,1,2) + x(3,2,1) + x(3,2,2) + x(3,3,2)
   <= 1
 processing(3,3): x(3,1,1) + x(3,1,2) + x(3,1,3) + x(3,2,1) + x(3,2,2)
   + x(3,2,3) + x(3,3,3) <= 1
 processing(3,4): x(3,1,1) + x(3,1,2) + x(3,1,3) + x(3,1,4) + x(3,2,2)
   + x(3,2,3) + x(3,2,4) + x(3,3,4) <= 1
 processing(3,5): x(3,1,1) + x(3,1,2) + x(3,1,3) + x(3,1,4) + x(3,1,5)
   + x(3,2,3) + x(3,2,4) + x(3,2,5) + x(3,3,5) <= 1
 processing(3,6): x(3,1,2) + x(3,1,3) + x(3,1,4) + x(3,1,5) + x(3,1,6)
   + x(3,2,4) + x(3,2,5) + x(3,2,6) + x(3,3,6) <= 1
 processing(3,7): x(3,1,3) + x(3,1,4) + x(3,1,5) + x(3,1,6) + x(3,1,7)
   + x(3,2,5) + x(3,2,6) + x(3,2,7) + x(3,3,7) <= 1
 processing(3,8): x(3,1,4) + x(3,1,5) + x(3,1,6) + x(3,1,7) + x(3,1,8)
   + x(3,2,6) + x(3,2,7) + x(3,2,8) + x(3,3,8) <= 1
 processing(3,9): x(3,1,5) + x(3,1,6) + x(3,1,7) + x(3,1,8) + x(3,1,9)
   + x(3,2,7) + x(3,2,8) + x(3,2,9) + x(3,3,9) <= 1
 processing(3,10): x(3,1,6) + x(3,1,7) + x(3,1,8) + x(3,1,9) + x(3,1,10)
   + x(3,2,8) + x(3,2,9) + x(3,2,10) + x(3,3,10) <= 1
 processing(3,11): x(3,1,7) + x(3,1,8) + x(3,1,9) + x(3,1,10) + x(3,1,11)
   + x(3,2,9) + x(3,2,10) + x(3,2,11) + x(3,3,11) <= 1
 processing(3,12): x(3,1,8) + x(3,1,9) + x(3,1,10) + x(3,1,11) + x(3,1,12)
   + x(3,2,10) + x(3,2,11) + x(3,2,12) + x(3,3,12) <= 1
 processing(3,13): x(3,1,9) + x(3,1,10) + x(3,1,11) + x(3,1,12) + x(3,1,13)
   + x(3,2,11) + x(3,2,12) + x(3,2,13) + x(3,3,13) <= 1
 processing(3,14): x(3,1,10) + x(3,1,11) + x(3,1,12) + x(3,1,13)
   + x(3,1,14) + x(3,2,12) + x(3,2,13) + x(3,2,14) + x(3,3,14) <= 1
 processing(3,15): x(3,1,11) + x(3,1,12) + x(3,1,13) + x(3,1,14)
   + x(3,1,15) + x(3,2,13) + x(3,2,14) + x(3,2,15) + x(3,3,15) <= 1
 processing(3,16): x(3,1,12) + x(3,1,13) + x(3,1,14) + x(3,1,15)
   + x(3,1,16) + x(3,2,14) + x(3,2,15) + x(3,2,16) + x(3,3,16) <= 1
 processing(3,17): x(3,1,13) + x(3,1,14) + x(3,1,15) + x(3,1,16)
   + x(3,1,17) + x(3,2,15) + x(3,2,16) + x(3,2,17) + x(3,3,17) <= 1
 processing(3,18): x(3,1,14) + x(3,1,15) + x(3,1,16) + x(3,1,17)
   + x(3,1,18) + x(3,2,16) + x(3,2,17) + x(3,2,18) + x(3,3,18) <= 1
 processing(3,19): x(3,1,15) + x(3,1,16) + x(3,1,17) + x(3,1,18)
   + x(3,1,19) + x(3,2,17) + x(3,2,18) + x(3,2,19) + x(3,3,19) <= 1
 processing(3,20): x(3,1,16) + x(3,1,17) + x(3,1,18) + x(3,1,19)
   + x(3,1,20) + x(3,2,18) + x(3,2,19) + x(3,2,20) + x(3,3,20) <= 1
 ord(2,1): 3 x(2,1,1) + 4 x(2,1,2) + 5 x(2,1,3) + 6 x(2,1,4) + 7 x(2,1,5)
   + 8 x(2,1,6) + 9 x(2,1,7) + 10 x(2,1,8) + 11 x(2,1,9) + 12 x(2,1,10)
   + 13 x(2,1,11) + 14 x(2,1,12) + 15 x(2,1,13) + 16 x(2,1,14)
   + 17 x(2,1,15) + 18 x(2,1,16) + 19 x(2,1,17) + 20 x(2,1,18)
   + 21 x(2,1,19) + 22 x(2,1,20) - x(3,1,2) - 2 x(3,1,3) - 3 x(3,1,4)
   - 4 x(3,1,5) - 5 x(3,1,6) - 6 x(3,1,7) - 7 x(3,1,8) - 8 x(3,1,9)
   - 9 x(3,1,10) - 10 x(3,1,11) - 11 x(3,1,12) - 12 x(3,1,13)
   - 13 x(3,1,14) - 14 x(3,1,15) - 15 x(3,1,16) - 16 x(3,1,17)
   - 17 x(3,1,18) - 18 x(3,1,19) - 19 x(3,1,20) <= 0
 ord(3,1): - x(1,1,2) - 2 x(1,1,3) - 3 x(1,1,4) - 4 x(1,1,5) - 5 x(1,1,6)
   - 6 x(1,1,7) - 7 x(1,1,8) - 8 x(1,1,9) - 9 x(1,1,10) - 10 x(1,1,11)
   - 11 x(1,1,12) - 12 x(1,1,13) - 13 x(1,1,14) - 14 x(1,1,15)
   - 15 x(1,1,16) - 16 x(1,1,17) - 17 x(1,1,18) - 18 x(1,1,19)
   - 19 x(1,1,20) + 5 x(3,1,1) + 6 x(3,1,2) + 7 x(3,1,3) + 8 x(3,1,4)
   + 9 x(3,1,5) + 10 x(3,1,6) + 11 x(3,1,7) + 12 x(3,1,8) + 13 x(3,1,9)
   + 14 x(3,1,10) + 15 x(3,1,11) + 16 x(3,1,12) + 17 x(3,1,13)
   + 18 x(3,1,14) + 19 x(3,1,15) + 20 x(3,1,16) + 21 x(3,1,17)
   + 22 x(3,1,18) + 23 x(3,1,19) + 24 x(3,1,20) <= 0
 ord(2,2): - x(1,2,2) - 2 x(1,2,3) - 3 x(1,2,4) - 4 x(1,2,5) - 5 x(1,2,6)
   - 6 x(1,2,7) - 7 x(1,2,8) - 8 x(1,2,9) - 9 x(1,2,10) - 10 x(1,2,11)
   - 11 x(1,2,12) - 12 x(1,2,13) - 13 x(1,2,14) - 14 x(1,2,15)
   - 15 x(1,2,16) - 16 x(1,2,17) - 17 x(1,2,18) - 18 x(1,2,19)
   - 19 x(1,2,20) + 5 x(2,2,1) + 6 x(2,2,2) + 7 x(2,2,3) + 8 x(2,2,4)
   + 9 x(2,2,5) + 10 x(2,2,6) + 11 x(2,2,7) + 12 x(2,2,8) + 13 x(2,2,9)
   + 14 x(2,2,10) + 15 x(2,2,11) + 16 x(2,2,12) + 17 x(2,2,13)
   + 18 x(2,2,14) + 19 x(2,2,15) + 20 x(2,2,16) + 21 x(2,2,17)
   + 22 x(2,2,18) + 23 x(2,2,19) + 24 x(2,2,20) <= 0
 ord(3,2): 4 x(1,2,1) + 5 x(1,2,2) + 6 x(1,2,3) + 7 x(1,2,4) + 8 x(1,2,5)
   + 9 x(1,2,6) + 10 x(1,2,7) + 11 x(1,2,8) + 12 x(1,2,9) + 13 x(1,2,10)
   + 14 x(1,2,11) + 15 x(1,2,12) + 16 x(1,2,13) + 17 x(1,2,14)
   + 18 x(1,2,15) + 19 x(1,2,16) + 20 x(1,2,17) + 21 x(1,2,18)
   + 22 x(1,2,19) + 23 x(1,2,20) - x(3,2,2) - 2 x(3,2,3) - 3 x(3,2,4)
   - 4 x(3,2,5) - 5 x(3,2,6) - 6 x(3,2,7) - 7 x(3,2,8) - 8 x(3,2,9)
   - 9 x(3,2,10) - 10 x(3,2,11) - 11 x(3,2,12) - 12 x(3,2,13)
   - 13 x(3,2,14) - 14 x(3,2,15) - 15 x(3,2,16) - 16 x(3,2,17)
   - 17 x(3,2,18) - 18 x(3,2,19) - 19 x(3,2,20) <= 0
 ord(2,3): 3 x(2,3,1) + 4 x(2,3,2) + 5 x(2,3,3) + 6 x(2,3,4) + 7 x(2,3,5)
   + 8 x(2,3,6) + 9 x(2,3,7) + 10 x(2,3,8) + 11 x(2,3,9) + 12 x(2,3,10)
   + 13 x(2,3,11) + 14 x(2,3,12) + 15 x(2,3,13) + 16 x(2,3,14)
   + 17 x(2,3,15) + 18 x(2,3,16) + 19 x(2,3,17) + 20 x(2,3,18)
   + 21 x(2,3,19) + 22 x(2,3,20) - x(3,3,2) - 2 x(3,3,3) - 3 x(3,3,4)
   - 4 x(3,3,5) - 5 x(3,3,6) - 6 x(3,3,7) - 7 x(3,3,8) - 8 x(3,3,9)
   - 9 x(3,3,10) - 10 x(3,3,11) - 11 x(3,3,12) - 12 x(3,3,13)
   - 13 x(3,3,14) - 14 x(3,3,15) - 15 x(3,3,16) - 16 x(3,3,17)
   - 17 x(3,3,18) - 18 x(3,3,19) - 19 x(3,3,20) <= 0
 ord(3,3): - x(1,3,2) - 2 x(1,3,3) - 3 x(1,3,4) - 4 x(1,3,5) - 5 x(1,3,6)
   - 6 x(1,3,7) - 7 x(1,3,8) - 8 x(1,3,9) - 9 x(1,3,10) - 10 x(1,3,11)
   - 11 x(1,3,12) - 12 x(1,3,13) - 13 x(1,3,14) - 14 x(1,3,15)
   - 15 x(1,3,16) - 16 x(1,3,17) - 17 x(1,3,18) - 18 x(1,3,19)
   - 19 x(1,3,20) + x(3,3,1) + 2 x(3,3,2) + 3 x(3,3,3) + 4 x(3,3,4)
   + 5 x(3,3,5) + 6 x(3,3,6) + 7 x(3,3,7) + 8 x(3,3,8) + 9 x(3,3,9)
   + 10 x(3,3,10) + 11 x(3,3,11) + 12 x(3,3,12) + 13 x(3,3,13)
   + 14 x(3,3,14) + 15 x(3,3,15) + 16 x(3,3,16) + 17 x(3,3,17)
   + 18 x(3,3,18) + 19 x(3,3,19) + 20 x(3,3,20) <= 0
Bounds
Generals
 x(1,1,1) x(1,1,2) x(1,1,3) x(1,1,4) x(1,1,5) x(1,1,6) x(1,1,7) x(1,1,8)
 x(1,1,9) x(1,1,10) x(1,1,11) x(1,1,12) x(1,1,13) x(1,1,14) x(1,1,15)
 x(1,1,16) x(1,1,17) x(1,1,18) x(1,1,19) x(1,1,20) x(1,2,1) x(1,2,2)
 x(1,2,3) x(1,2,4) x(1,2,5) x(1,2,6) x(1,2,7) x(1,2,8) x(1,2,9) x(1,2,10)
 x(1,2,11) x(1,2,12) x(1,2,13) x(1,2,14) x(1,2,15) x(1,2,16) x(1,2,17)
 x(1,2,18) x(1,2,19) x(1,2,20) x(1,3,1) x(1,3,2) x(1,3,3) x(1,3,4) x(1,3,5)
 x(1,3,6) x(1,3,7) x(1,3,8) x(1,3,9) x(1,3,10) x(1,3,11) x(1,3,12)
 x(1,3,13) x(1,3,14) x(1,3,15) x(1,3,16) x(1,3,17) x(1,3,18) x(1,3,19)
 x(1,3,20) x(2,1,1) x(2,1,2) x(2,1,3) x(2,1,4) x(2,1,5) x(2,1,6) x(2,1,7)
 x(2,1,8) x(2,1,9) x(2,1,10) x(2,1,11) x(2,1,12) x(2,1,13) x(2,1,14)
 x(2,1,15) x(2,1,16) x(2,1,17) x(2,1,18) x(2,1,19) x(2,1,20) x(2,2,1)
 x(2,2,2) x(2,2,3) x(2,2,4) x(2,2,5) x(2,2,6) x(2,2,7) x(2,2,8) x(2,2,9)
 x(2,2,10) x(2,2,11) x(2,2,12) x(2,2,13) x(2,2,14) x(2,2,15) x(2,2,16)
 x(2,2,17) x(2,2,18) x(2,2,19) x(2,2,20) x(2,3,1) x(2,3,2) x(2,3,3)
 x(2,3,4) x(2,3,5) x(2,3,6) x(2,3,7) x(2,3,8) x(2,3,9) x(2,3,10) x(2,3,11)
 x(2,3,12) x(2,3,13) x(2,3,14) x(2,3,15) x(2,3,16) x(2,3,17) x(2,3,18)
 x(2,3,19) x(2,3,20) x(3,1,1) x(3,1,2) x(3,1,3) x(3,1,4) x(3,1,5) x(3,1,6)
 x(3,1,7) x(3,1,8) x(3,1,9) x(3,1,10) x(3,1,11) x(3,1,12) x(3,1,13)
 x(3,1,14) x(3,1,15) x(3,1,16) x(3,1,17) x(3,1,18) x(3,1,19) x(3,1,20)
 x(3,2,1) x(3,2,2) x(3,2,3) x(3,2,4) x(3,2,5) x(3,2,6) x(3,2,7) x(3,2,8)
 x(3,2,9) x(3,2,10) x(3,2,11) x(3,2,12) x(3,2,13) x(3,2,14) x(3,2,15)
 x(3,2,16) x(3,2,17) x(3,2,18) x(3,2,19) x(3,2,20) x(3,3,1) x(3,3,2)
 x(3,3,3) x(3,3,4) x(3,3,5) x(3,3,6) x(3,3,7) x(3,3,8) x(3,3,9) x(3,3,10)
 x(3,3,11) x(3,3,12) x(3,3,13) x(3,3,14) x(3,3,15) x(3,3,16) x(3,3,17)
 x(3,3,18) x(3,3,19) x(3,3,20) C
End
